(set-info :smt-lib-version 2.6)
(set-logic QF_LIA)
(set-info :source |
show equivalence of the following terms:
(4 * v2 + (1 * v0 + 2 * v1))

v0 + 2 * (v1 + 2 * (v2))

in arithmetic modulo 2exp10
STATUS: unsat

generated by: Alberto Griggio <alberto.griggio@disi.unitn.it>
|)
(set-info :category "crafted")
(set-info :status unsat)
(declare-fun v0 () Int)
(declare-fun v1 () Int)
(declare-fun v2 () Int)
(declare-fun s_0 () Int)
(declare-fun o_0 () Int)
(declare-fun s_1 () Int)
(declare-fun o_1 () Int)
(declare-fun o_2 () Int)
(declare-fun s_3 () Int)
(declare-fun o_3 () Int)
(assert (let ((?v_0 (* v2 2))) (let ((?v_6 (< ?v_0 1024)) (?v_7 (< ?v_0 2048))) (let ((?v_8 (+ (ite ?v_6 ?v_0 (ite ?v_7 (- ?v_0 1024) (- ?v_0 2048))) v1))) (let ((?v_9 (- ?v_8 (* o_2 1024))) (?v_12 (* v2 4))) (let ((?v_13 (- ?v_12 (* s_1 1024))) (?v_16 (* v1 2))) (let ((?v_17 (- ?v_16 (* s_0 1024)))) (let ((?v_14 (+ ?v_17 v0))) (let ((?v_15 (- ?v_14 (* o_0 1024)))) (let ((?v_10 (+ ?v_13 ?v_15))) (let ((?v_11 (- ?v_10 (* o_1 1024))) (?v_1 (* 4 v2))) (let ((?v_4 (- (+ (ite ?v_6 ?v_1 (ite ?v_7 (- ?v_1 2048) (- ?v_1 4096))) (* 2 v1)) (* 2048 o_2)))) (let ((?v_5 (- ?v_4 (* s_3 1024)))) (let ((?v_2 (+ ?v_5 v0))) (let ((?v_3 (- ?v_2 (* o_3 1024)))) (and (not (= ?v_3 ?v_11)) (and (= (> ?v_2 1024) (= o_3 1)) (and (and (< ?v_3 1024) (<= 0 ?v_3)) (and (and (<= o_3 1) (<= 0 o_3)) (and (= (> ?v_4 1024) (>= s_3 1)) (and (and (< ?v_5 1024) (<= 0 ?v_5)) (and (and (< s_3 2) (<= 0 s_3)) (and (= (> ?v_8 1024) (= o_2 1)) (and (and (< ?v_9 1024) (<= 0 ?v_9)) (and (and (<= o_2 1) (<= 0 o_2)) (and (= (> ?v_10 1024) (= o_1 1)) (and (and (< ?v_11 1024) (<= 0 ?v_11)) (and (and (<= o_1 1) (<= 0 o_1)) (and (= (> ?v_12 1024) (>= s_1 1)) (and (and (< ?v_13 1024) (<= 0 ?v_13)) (and (and (< s_1 4) (<= 0 s_1)) (and (= (> ?v_14 1024) (= o_0 1)) (and (and (< ?v_15 1024) (<= 0 ?v_15)) (and (and (<= o_0 1) (<= 0 o_0)) (and (= (> ?v_16 1024) (>= s_0 1)) (and (and (< ?v_17 1024) (<= 0 ?v_17)) (and (and (< s_0 2) (<= 0 s_0)) (and (and (< v2 1024) (>= v2 0)) (and (and (< v1 1024) (>= v1 0)) (and (< v0 1024) (>= v0 0)))))))))))))))))))))))))))))))))))))))))
(check-sat)
(exit)
